StudentsNr = 10;
InstructorsNr = 90;
DaysNr = 1;
SlotsPerDay = 15;
AvailabilitySlotsLenght = 5;
RoomNr = 1;
ProgrammNr = 2;
DegreeNr = 2;
RolesNr = 4;
CoursesNr = 5;
InstructorsProgramm = [{1}, {1}, {1}, {2}, {1}, {2}, {2}, {2}, {1, 2}, {2}, {1, 2}, {2}, {2}, {1, 2}, {2}, {1}, {2}, {2}, {2}, {1, 2}, {2}, {2}, {1, 2}, {1}, {2}, {1}, {2}, {1}, {1}, {1, 2}, {1, 2}, {1}, {1}, {1}, {2}, {1}, {2}, {2}, {1}, {1, 2}, {1}, {1}, {1}, {1, 2}, {1}, {1}, {1}, {1}, {2}, {1, 2}, {1, 2}, {2}, {1}, {1, 2}, {1, 2}, {2}, {1}, {2}, {1, 2}, {1}, {1}, {1}, {1, 2}, {2}, {1, 2}, {1, 2}, {2}, {2}, {1}, {2}, {1}, {2}, {1}, {1}, {1}, {2}, {2}, {1, 2}, {1, 2}, {1}, {2}, {1}, {2}, {1, 2}, {1}, {1}, {1, 2}, {1, 2}, {1, 2}, {1}];
InstructorRolesPerProgramm = [|{1, 2, 9, 20, 23, 29, 30, 32, 41, 43, 51, 53, 59, 62, 69, 73, 78, 80, 85}, {1, 2, 11, 14, 16, 20, 23, 31, 32, 33, 36, 42, 43, 48, 55, 59, 60, 61, 65, 66, 69, 71, 78, 80, 84, 87, 90}, {3, 9, 11, 23, 28, 30, 33, 39, 40, 41, 43, 45, 53, 59, 63, 66, 73, 74, 79, 80, 85, 88}, {2, 9, 11, 14, 23, 26, 29, 30, 32, 39, 40, 41, 43, 45, 48, 51, 57, 61, 63, 65, 66, 71, 74, 79, 80, 85, 90}|{9, 10, 12, 17, 18, 19, 20, 23, 30, 37, 51, 58, 59, 64, 67, 77, 78, 81}, {8, 11, 14, 20, 21, 23, 25, 31, 55, 59, 65, 66, 72, 76, 78, 84, 87}, {9, 10, 11, 19, 21, 23, 30, 40, 49, 52, 58, 59, 63, 64, 66, 67, 68, 77, 79, 81, 88}, {9, 11, 14, 15, 17, 19, 21, 23, 27, 30, 37, 40, 49, 51, 63, 64, 65, 66, 67, 70, 76, 79, 83}|];
InstructorsAvailability = [|0, 1, 1, |0, 0, 1, |1, 1, 0, |0, 1, 1, |1, 1, 1, |0, 0, 0, |1, 1, 1, |1, 1, 1, |1, 1, 1, |1, 0, 0, |1, 0, 0, |1, 1, 1, |1, 1, 0, |0, 1, 1, |0, 1, 1, |1, 1, 1, |1, 1, 1, |1, 1, 1, |0, 1, 1, |0, 1, 0, |0, 1, 1, |1, 1, 1, |0, 1, 1, |1, 1, 1, |0, 0, 1, |0, 1, 1, |1, 1, 0, |0, 0, 1, |1, 1, 1, |1, 1, 1, |0, 1, 1, |0, 1, 0, |0, 0, 0, |0, 1, 1, |0, 1, 1, |0, 1, 1, |0, 1, 0, |0, 0, 1, |0, 1, 0, |1, 1, 1, |0, 1, 1, |1, 1, 1, |0, 1, 1, |1, 0, 0, |1, 0, 1, |1, 1, 1, |0, 0, 1, |0, 1, 1, |0, 1, 1, |1, 1, 1, |0, 0, 0, |0, 0, 1, |1, 1, 1, |1, 1, 0, |1, 0, 0, |0, 0, 0, |0, 0, 1, |0, 1, 1, |1, 1, 1, |1, 1, 1, |1, 1, 1, |1, 1, 0, |1, 1, 1, |0, 0, 1, |1, 1, 0, |0, 0, 0, |0, 1, 1, |1, 1, 1, |0, 1, 1, |0, 1, 1, |0, 1, 1, |0, 1, 1, |1, 1, 1, |0, 0, 1, |0, 1, 1, |1, 1, 1, |1, 1, 1, |0, 0, 1, |0, 0, 1, |0, 1, 1, |0, 1, 1, |1, 1, 1, |0, 1, 1, |0, 1, 0, |1, 1, 1, |1, 1, 0, |0, 0, 1, |0, 1, 1, |0, 1, 1, |0, 1, 1|];
StudentsProgramm = [2, 1, 2, 1, 2, 2, 2, 2, 1, 1];
StudentsDegree = [1, 1, 2, 2, 1, 2, 1, 1, 2, 1];
StudentsSupervisorId = [22, 90, 50, 30, 83, 76, 63, 70, 74, 41];
StudentsCourseIds = [{1, 2, 4, 5}, {1, 2, 4, 5}, {1, 2, 4, 5}, {1, 2, 3, 5}, {1, 2, 3, 4}, {1, 2, 3, 5}, {1, 2, 4, 5}, {1, 2, 4, 5}, {1, 2, 3, 5}, {1, 2, 4, 5}];
StudentsAvailability = [|0, 1, 1, |1, 1, 1, |1, 0, 0, |0, 0, 0, |0, 1, 1, |0, 0, 0, |0, 0, 0, |1, 1, 1, |1, 1, 1, |0, 1, 1|];
TheoryticalMinCard = [1, 0, 0, 0, 0, 0, 0, 0, 0, 0];
CoursesInstructorIds = [{1, 3, 6, 7, 10, 14, 15, 16, 17, 18, 19, 20, 21, 23, 24, 26, 28, 29, 30, 31, 33, 35, 36, 37, 40, 41, 43, 45, 46, 48, 49, 52, 54, 55, 56, 57, 58, 59, 60, 61, 62, 63, 66, 68, 69, 70, 72, 73, 75, 77, 78, 79, 80, 81, 82, 84, 86, 88, 89, 90}, {1, 2, 3, 6, 7, 8, 9, 10, 14, 15, 20, 21, 24, 25, 26, 28, 30, 31, 34, 36, 38, 39, 40, 42, 43, 44, 46, 47, 49, 50, 52, 53, 54, 56, 57, 59, 65, 66, 67, 68, 69, 70, 73, 75, 76, 77, 79, 80, 83, 84, 87, 89}, {3, 4, 6, 7, 12, 17, 18, 21, 23, 24, 26, 27, 28, 30, 33, 34, 35, 37, 38, 46, 47, 49, 50, 51, 52, 53, 54, 61, 62, 64, 65, 66, 67, 69, 73, 74, 76, 78, 81}, {23, 71}, {2, 3, 5, 6, 8, 9, 11, 12, 13, 14, 15, 16, 17, 18, 19, 20, 23, 25, 27, 29, 30, 31, 32, 34, 37, 38, 42, 43, 45, 48, 52, 54, 55, 57, 58, 60, 61, 62, 64, 66, 67, 68, 69, 70, 71, 72, 73, 74, 76, 77, 80, 81, 82, 84, 85, 87, 89, 90}];
RolesDemands = [6, 2, 3, 17];
RolesContinuity = [3];
ExamLen = [2, 2, 2, 2, 2, 2, 2, 2, 2, 2];
LunchTsMinLen = 1;
LunchStarts = [3..9];
SupervisorAvailable = 0;
OptimalLunchLenght = [0, 1];
OptimalStartTs = [1, 1];
OptimalFinishTs = [0, 15];
MinimizeRooms = 100;
RolesSoftContinuity = [|1, 2, 3, 4|1, 3, 0, 0|];
SameDegreeInRoom = 10;
Mergeability = 2;
